
Gurobi 12.0.2 (win64) logging started Fri Jun  6 16:50:41 2025

Set parameter LogFile to value "C:\Ioana\_uni\honours\slp\algorithm\Main_files\results\others\neuro_new1\Task_357_Sample001_irr_gurobi.log"
Gurobi Optimizer version 12.0.2 build v12.0.2rc0 (win64 - Windows 11.0 (26100.2))

CPU model: Intel(R) Core(TM) Ultra 5 125H, instruction set [SSE2|AVX|AVX2]
Thread count: 14 physical cores, 18 logical processors, using up to 18 threads

Non-default parameters:
TimeLimit  2200

Optimize a model with 47226 rows, 34497 columns and 146684 nonzeros
Model fingerprint: 0xb17a06f0
Variable types: 17252 continuous, 17245 integer (17245 binary)
Coefficient statistics:
  Matrix range     [1e-04, 8e+04]
  Objective range  [1e-04, 3e+00]
  Bounds range     [1e+00, 1e+03]
  RHS range        [1e+00, 1e+00]
Found heuristic solution: objective 3.5211454
Presolve removed 32381 rows and 22720 columns
Presolve time: 0.35s
Presolved: 14845 rows, 11777 columns, 48725 nonzeros
Variable types: 5837 continuous, 5940 integer (5940 binary)

Root relaxation: objective 6.497330e-06, 5284 iterations, 0.43 seconds (0.97 work units)

    Nodes    |    Current Node    |     Objective Bounds      |     Work
 Expl Unexpl |  Obj  Depth IntInf | Incumbent    BestBd   Gap | It/Node Time

     0     0    0.00001    0    4    3.52115    0.00001   100%     -    0s
H    0     0                       0.0075197    0.00001   100%     -    0s
     0     0    0.00001    0    4    0.00752    0.00001   100%     -    0s

Explored 1 nodes (5284 simplex iterations) in 0.82 seconds (1.40 work units)
Thread count was 18 (of 18 available processors)

Solution count 2: 0.00751971 3.52115 

Optimal solution found (tolerance 1.00e-04)
Best objective 7.519706980068e-03, best bound 7.519706980068e-03, gap 0.0000%
